words_hard_train/1404.qaiger
aag 85 16 0 1 69
2
4
8
12
16
20
52
60
78
80
98
110
122
134
142
150
170
6 3 5
10 6 9
14 10 13
18 14 17
22 19 20
24 18 21
26 23 25
28 15 16
30 29 19
32 11 12
34 33 15
36 7 8
38 37 11
40 2 4
42 41 7
44 38 42
46 35 45
48 30 47
50 27 49
54 50 52
56 51 53
58 55 57
62 24 61
64 25 60
66 63 65
68 58 67
70 59 66
72 69 71
74 63 50
76 75 65
82 78 81
84 79 80
86 83 85
88 76 86
90 77 87
92 89 91
94 48 21
96 95 51
100 97 99
102 96 98
104 101 103
106 31 46
108 107 49
112 109 110
114 108 111
116 113 115
118 44 13
120 119 47
124 121 123
126 120 122
128 125 127
130 39 43
132 131 45
136 133 135
138 132 134
140 137 139
144 43 143
146 42 142
148 145 147
152 150 2
154 151 3
156 153 155
158 148 157
160 141 158
162 128 160
164 116 162
166 104 164
168 93 166
170 73 168
i0 2 y1[0]
i1 2 y1[1]
i2 2 y1[2]
i3 2 y1[3]
i4 2 y1[4]
i5 2 y1[5]
i6 1 x1[1]
i7 2 y1[6]
i8 2 y1[7]
i9 1 x1[0]
i10 1 x1[2]
i11 1 x1[3]
i12 1 x1[4]
i13 1 x1[5]
i14 1 x1[6]
i15 1 x1[7]
o0 bool[0]
c
simplified
  ==
    reverse
      1 x1
    subtract
      add
        1
        -215
      2 y1
