words_hard_train/1404.qaiger.qdimacs
p cnf 85 208
a 67 71 40 75 49 55 26 61 0
e 1 2 3 4 5 6 7 8 9 10 11 12 13 14 15 16 17 18 19 20 21 22 23 24 25 27 28 29 30 31 32 33 34 35 36 37 38 39 41 42 43 44 45 46 47 48 50 51 52 53 54 56 57 58 59 60 62 63 64 65 66 68 69 70 72 73 74 76 77 78 79 80 81 82 83 84 85 0
1 2 3 0
-1 -3 0
-2 -3 0
-3 4 5 0
3 -5 0
-4 -5 0
-5 6 7 0
5 -7 0
-6 -7 0
-7 8 9 0
7 -9 0
-8 -9 0
9 -10 11 0
-9 -11 0
10 -11 0
-9 10 12 0
9 -12 0
-10 -12 0
11 12 13 0
-11 -13 0
-12 -13 0
7 -8 14 0
-7 -14 0
8 -14 0
14 9 15 0
-14 -15 0
-9 -15 0
5 -6 16 0
-5 -16 0
6 -16 0
16 7 17 0
-16 -17 0
-7 -17 0
3 -4 18 0
-3 -18 0
4 -18 0
18 5 19 0
-18 -19 0
-5 -19 0
-1 -2 20 0
1 -20 0
2 -20 0
20 3 21 0
-20 -21 0
-3 -21 0
-19 -21 22 0
19 -22 0
21 -22 0
17 22 23 0
-17 -23 0
-22 -23 0
-15 23 24 0
15 -24 0
-23 -24 0
13 24 25 0
-13 -25 0
-24 -25 0
-25 -26 27 0
25 -27 0
26 -27 0
25 26 28 0
-25 -28 0
-26 -28 0
27 28 29 0
-27 -29 0
-28 -29 0
-12 30 31 0
12 -31 0
-30 -31 0
12 -30 32 0
-12 -32 0
30 -32 0
31 32 33 0
-31 -33 0
-32 -33 0
-29 33 34 0
29 -34 0
-33 -34 0
29 -33 35 0
-29 -35 0
33 -35 0
34 35 36 0
-34 -36 0
-35 -36 0
31 -25 37 0
-31 -37 0
25 -37 0
37 32 38 0
-37 -38 0
-32 -38 0
-39 40 41 0
39 -41 0
-40 -41 0
39 -40 42 0
-39 -42 0
40 -42 0
41 42 43 0
-41 -43 0
-42 -43 0
-38 -43 44 0
38 -44 0
43 -44 0
38 43 45 0
-38 -45 0
-43 -45 0
44 45 46 0
-44 -46 0
-45 -46 0
-24 10 47 0
24 -47 0
-10 -47 0
47 25 48 0
-47 -48 0
-25 -48 0
48 49 50 0
-48 -50 0
-49 -50 0
-48 -49 51 0
48 -51 0
49 -51 0
50 51 52 0
-50 -52 0
-51 -52 0
15 -23 53 0
-15 -53 0
23 -53 0
53 24 54 0
-53 -54 0
-24 -54 0
54 -55 56 0
-54 -56 0
55 -56 0
-54 55 57 0
54 -57 0
-55 -57 0
56 57 58 0
-56 -58 0
-57 -58 0
-22 6 59 0
22 -59 0
-6 -59 0
59 23 60 0
-59 -60 0
-23 -60 0
60 61 62 0
-60 -62 0
-61 -62 0
-60 -61 63 0
60 -63 0
61 -63 0
62 63 64 0
-62 -64 0
-63 -64 0
19 21 65 0
-19 -65 0
-21 -65 0
65 22 66 0
-65 -66 0
-22 -66 0
66 67 68 0
-66 -68 0
-67 -68 0
-66 -67 69 0
66 -69 0
67 -69 0
68 69 70 0
-68 -70 0
-69 -70 0
21 71 72 0
-21 -72 0
-71 -72 0
-21 -71 73 0
21 -73 0
71 -73 0
72 73 74 0
-72 -74 0
-73 -74 0
-75 -1 76 0
75 -76 0
1 -76 0
75 1 77 0
-75 -77 0
-1 -77 0
76 77 78 0
-76 -78 0
-77 -78 0
-74 78 79 0
74 -79 0
-78 -79 0
70 -79 80 0
-70 -80 0
79 -80 0
-64 -80 81 0
64 -81 0
80 -81 0
-58 -81 82 0
58 -82 0
81 -82 0
-52 -82 83 0
52 -83 0
82 -83 0
46 -83 84 0
-46 -84 0
83 -84 0
36 -84 85 0
-36 -85 0
84 -85 0
85 0
